Traveling Salesman Problem/TSP_generados/Aleatorio1620390884_7.tsp
NAME: Aleatorio1620390884_7.tsp
COMMENT: Randomly generated scenario
TYPE: TSP
DIMENSION: 7
EDGE_WEIGHT_TYPE: ATT
NODE_COORD_SECTION
1 9.11 1.7
2 29.45 40.35
3 47.12 8.05
4 28.29 32.94
5 23.88 44.03
6 20.6 0.06
7 29.52 35.39
