Traveling Salesman Problem/TSP_generados/Aleatorio1620390884_7.opt.tour
NAME: Aleatorio1620390884_7.opt.tour
COMMENT: Optimal solution for Aleatorio1620390884_7 (129.72481532974493)
TYPE: TOUR
DIMENSION: 7
TOUR_SECTION
1 5 2 7 4 3 6
-1
EOF
